Running MiniSat on FULL_RUN_MINISAT\5432e4dd44480fadbd66647db1750c80-pcmax-scheduling-m24-24102-255206-SAT.sanitized.cnf... 
============================[ Problem Statistics ]=============================
|                                                                             |
|  Number of variables:         24101                                         |
|  Number of clauses:          254904                                         |
|  Parse time:                   0.41 s                                       |
|                                                                             |
============================[ Search Statistics ]==============================
| Conflicts |          ORIGINAL         |          LEARNT          | Progress |
|           |    Vars  Clauses Literals |    Limit  Clauses Lit/Cl |          |
===============================================================================
|       100 |   24025   254904   724623 |    93464       99      4 |  0.315 % |
|       250 |   24025   254904   724623 |   102811      249      4 |  0.315 % |
|       475 |   24025   254904   724623 |   113092      474      4 |  0.315 % |
|       812 |   24025   254904   724623 |   124401      811      7 |  0.315 % |
|      1318 |   24025   254904   724623 |   136841     1317     21 |  0.315 % |
|      2077 |   24023   254765   724343 |   150525     2072     17 |  0.324 % |
|      3216 |   24023   254765   724343 |   165578     3211     46 |  0.324 % |
|      4924 |   24023   254765   724343 |   182136     4919     33 |  0.324 % |
|      7486 |   24023   254765   724343 |   200350     7481     29 |  0.324 % |
|     11330 |   24022   254756   724324 |   220385    11323     31 |  0.328 % |
|     17096 |   24022   254756   724324 |   242423    17089     53 |  0.328 % |
|     25745 |   24021   254723   724257 |   266665    25734     76 |  0.332 % |
|     38719 |   24021   254723   724257 |   293332    38708    105 |  0.332 % |
|     58180 |   24020   254680   724170 |   322665    58165    115 |  0.336 % |
ERROR: MiniSat process not found for FULL_RUN_MINISAT\576ebc1333f2c466c2dec98792721e1f-j3037_9_rggt_b.cnf 
Finished MiniSat on FULL_RUN_MINISAT\576ebc1333f2c466c2dec98792721e1f-j3037_9_rggt_b.cnf